Gurobi Optimizer version 9.1.2 build v9.1.2rc0 (linux64)
Thread count: 36 physical cores, 72 logical processors, using up to 32 threads
Optimize a model with 12 rows, 57 columns and 590 nonzeros
Model fingerprint: 0xf32eec78
Model has 47 quadratic constraints
Coefficient statistics:
  Matrix range     [2e-05, 3e+00]
  QMatrix range    [1e+00, 1e+00]
  QLMatrix range   [1e+00, 1e+00]
  Objective range  [8e-03, 7e-01]
  Bounds range     [1e+00, 1e+00]
  RHS range        [1e+00, 1e+00]
Presolve removed 9 rows and 0 columns

Continuous model is non-convex -- solving as a MIP.

Presolve removed 9 rows and 0 columns
Presolve time: 0.00s
Presolved: 189 rows, 57 columns, 443 nonzeros
Presolved model has 47 bilinear constraint(s)
Variable types: 57 continuous, 0 integer (0 binary)

Root relaxation: objective -1.743721e+00, 44 iterations, 0.00 seconds

    Nodes    |    Current Node    |     Objective Bounds      |     Work
 Expl Unexpl |  Obj  Depth IntInf | Incumbent    BestBd   Gap | It/Node Time

     0     0   -1.74372    0   38          -   -1.74372      -     -    0s
H    0     0                       0.6147548   -1.74372   384%     -    0s
     0     0   -1.64739    0    1    0.61475   -1.64739   368%     -    0s
H    0     0                      -1.6450460   -1.64739  0.14%     -    0s
     0     0     cutoff    0        -1.64505   -1.64505  0.00%     -    0s

Cutting planes:
  RLT: 25
  BQP: 3

Explored 1 nodes (76 simplex iterations) in 0.01 seconds
Thread count was 32 (of 72 available processors)

Solution count 2: -1.64505 0.614755 
No other solutions better than -1.64505

Optimal solution found (tolerance 1.00e-04)
Best objective -1.645045978473e+00, best bound -1.645045978473e+00, gap 0.0000%

User-callback calls 78, time in user-callback 0.00 sec
Gurobi Optimizer version 9.1.2 build v9.1.2rc0 (linux64)
Thread count: 36 physical cores, 72 logical processors, using up to 32 threads
Optimize a model with 24 rows, 125 columns and 2580 nonzeros
Model fingerprint: 0xe04ef05b
Model has 105 quadratic constraints
Coefficient statistics:
  Matrix range     [4e-06, 5e+01]
  QMatrix range    [1e+00, 1e+00]
  QLMatrix range   [1e+00, 1e+00]
  Objective range  [1e-02, 1e+00]
  Bounds range     [1e+00, 1e+00]
  RHS range        [1e+00, 1e+00]
Presolve removed 10 rows and 0 columns

Continuous model is non-convex -- solving as a MIP.

Presolve removed 10 rows and 0 columns
Presolve time: 0.00s
Presolved: 429 rows, 125 columns, 2142 nonzeros
Presolved model has 105 bilinear constraint(s)
Variable types: 125 continuous, 0 integer (0 binary)

Root relaxation: objective -5.666119e+00, 136 iterations, 0.00 seconds

    Nodes    |    Current Node    |     Objective Bounds      |     Work
 Expl Unexpl |  Obj  Depth IntInf | Incumbent    BestBd   Gap | It/Node Time

     0     0   -5.66612    0   75          -   -5.66612      -     -    0s
H    0     0                       0.2368197   -5.66612  2493%     -    0s
     0     0   -4.34650    0   95    0.23682   -4.34650  1935%     -    0s
H    0     0                      -0.9375784   -4.34650   364%     -    0s
     0     0   -4.26637    0   95   -0.93758   -4.26637   355%     -    0s
     0     0   -4.15088    0   39   -0.93758   -4.15088   343%     -    0s
H    0     0                      -1.9044207   -4.15088   118%     -    0s
     0     0   -4.13774    0   57   -1.90442   -4.13774   117%     -    0s
     0     0   -4.10187    0   61   -1.90442   -4.10187   115%     -    0s
     0     0   -4.09721    0   74   -1.90442   -4.09721   115%     -    0s
     0     0   -4.07625    0   61   -1.90442   -4.07625   114%     -    0s
     0     0   -4.07589    0   61   -1.90442   -4.07589   114%     -    0s
     0     0   -4.07082    0   61   -1.90442   -4.07082   114%     -    0s
H    0     0                      -1.9868502   -4.07082   105%     -    0s
     0     0   -4.07044    0   73   -1.98685   -4.07044   105%     -    0s
H    0     0                      -2.6223379   -4.07044  55.2%     -    0s
H    0     0                      -2.7247320   -4.07044  49.4%     -    0s
H    0     0                      -2.7334568   -4.07044  48.9%     -    0s
H    0     0                      -3.2410090   -4.07044  25.6%     -    0s
     0     2   -4.07044    0   73   -3.24101   -4.07044  25.6%     -    0s
*  641   380              20      -3.4075097   -3.65792  7.35%  20.5    0s
*  884   454              20      -3.4378567   -3.55145  3.30%  17.1    0s
*  894   454              24      -3.4433447   -3.55145  3.14%  17.0    0s
* 1090   266              25      -3.4433473   -3.48143  1.11%  15.2    0s
* 1098   266              25      -3.4433629   -3.48143  1.11%  15.2    0s
* 1307    83              16      -3.4438205   -3.46657  0.66%  13.1    0s
* 1323    83              18      -3.4439140   -3.46657  0.66%  13.1    0s
* 1544    69              21      -3.4463884   -3.46657  0.59%  11.3    0s
* 1697    35              22      -3.4468340   -3.45393  0.21%  10.5    0s
* 1698    35              22      -3.4468341   -3.45393  0.21%  10.5    0s
* 1731    35              21      -3.4469038   -3.44848  0.05%  10.4    0s
* 1748    35              22      -3.4469331   -3.44848  0.04%  10.4    0s
* 1751    35              22      -3.4469340   -3.44848  0.04%  10.4    0s
* 1805    35              23      -3.4469340   -3.44848  0.04%  10.2    0s

Cutting planes:
  RLT: 42
  BQP: 6
  PSD: 23

Explored 1890 nodes (18942 simplex iterations) in 0.60 seconds
Thread count was 32 (of 72 available processors)

Solution count 10: -3.44693 -3.44693 -3.44693 ... -3.44336

Optimal solution found (tolerance 1.00e-04)
Best objective -3.446934045619e+00, best bound -3.447110321942e+00, gap 0.0051%

User-callback calls 4038, time in user-callback 0.00 sec



objective value: -3.446934045619015
objective bound: -3.447110321941872
x_opt: [1.0, 0.0, 1.0, 0.0, 0.1858299874195964, 0.0, 1.0, 1.0, 0.4694050392228347, 0.0, 0.0, 0.0, 0.7714109387216174, 0.0, 0.4543763232525078, 0.31443096630654355, 0.0, 0.0, 0.0, 0.0]
GUROBI solution time: 0.5963468551635742




